n = 10; 

m=14; 


88	99	88	79	86	78	98	79	77	97
13	45	16	6	55	39	91	69	44	55
18	43	8	52	33	58	55	67	50	26
14	57	60	56	12	30	62	53	35	48
44	12	65	66	3	50	33	44	9	47
63	59	11	8	43	67	58	15	31	13
56	61	26	34	56	69	67	4	24	14
57	38	32	6	72	22	42	22	39	67
62	41	6	11	38	31	36	46	52	6
70	34	65	32	32	70	67	26	37	60
19	26	37	68	31	72	18	39	72	38
50	52	11	21	45	45	71	22	54	8
43	52	42	51	58	53	13	58	55	34
18	43	8	52	33	58	55	67	50	26

 

 
